n_machines = 10;
n_resources = 12;
n_jobs = 120;
horizon = 57311;
LB = 7086;
n_jobs_per_resource = [10, 10, 10, 10, 10, 10, 10, 10, 10, 10, 10, 10];
duration = [77, 148, 151, 433, 667, 925, 709, 926, 750, 144, 531, 225, 266, 262, 892, 893, 905, 595, 780, 180, 277, 810, 171, 21, 974, 716, 502, 899, 601, 527, 915, 9, 726, 587, 671, 850, 804, 728, 863, 933, 955, 19, 951, 37, 973, 151, 737, 230, 282, 584, 773, 267, 470, 364, 561, 21, 89, 234, 206, 710, 804, 700, 552, 836, 643, 592, 879, 185, 939, 137, 270, 862, 232, 686, 24, 104, 355, 16, 490, 43, 136, 391, 120, 690, 456, 670, 592, 369, 231, 666, 429, 218, 355, 50, 681, 955, 127, 776, 355, 17, 956, 174, 736, 142, 387, 732, 489, 781, 137, 406, 273, 238, 727, 273, 594, 85, 141, 326, 323, 101]